\* Source Pyomo model name=unknown *\

min 
cost:
+9999999 PExcess(1)
+9999999 PExcess(10)
+9999999 PExcess(11)
+9999999 PExcess(12)
+9999999 PExcess(13)
+9999999 PExcess(14)
+9999999 PExcess(15)
+9999999 PExcess(16)
+9999999 PExcess(17)
+9999999 PExcess(18)
+9999999 PExcess(19)
+9999999 PExcess(2)
+9999999 PExcess(20)
+9999999 PExcess(21)
+9999999 PExcess(22)
+9999999 PExcess(23)
+9999999 PExcess(24)
+9999999 PExcess(25)
+9999999 PExcess(26)
+9999999 PExcess(27)
+9999999 PExcess(28)
+9999999 PExcess(29)
+9999999 PExcess(3)
+9999999 PExcess(30)
+9999999 PExcess(4)
+9999999 PExcess(5)
+9999999 PExcess(6)
+9999999 PExcess(7)
+9999999 PExcess(8)
+9999999 PExcess(9)
+500 Ppv
+50000 Pwind

s.t.

c_l_EnergyDemand(1)_:
+1 PExcess(1)
+0.0001 PowerGeneratingWater(1)
+0.35082398400000003 Pwind
>= 5.6008825329216005

c_l_EnergyDemand(2)_:
+1 PExcess(2)
+0.0001 PowerGeneratingWater(2)
+0.672466656 Pwind
>= 5.7845159089632006

c_l_EnergyDemand(3)_:
+1 PExcess(3)
+0.0001 PowerGeneratingWater(3)
+0.38713856400000002 Pwind
>= 6.2436065228064006

c_l_EnergyDemand(4)_:
+1 PExcess(4)
+0.0001 PowerGeneratingWater(4)
+0.14558244000000001 Pwind
>= 6.9781472007120016

c_l_EnergyDemand(5)_:
+1 PExcess(5)
+0.0001 PowerGeneratingWater(5)
+0.12256115999999999 Pwind
>= 7.8045260878559999

c_l_EnergyDemand(6)_:
+1 PExcess(6)
+0.0001 PowerGeneratingWater(6)
+0.14558244000000001 Pwind
>= 8.3553975210240008

c_l_EnergyDemand(7)_:
+1 PExcess(7)
+0.0001 PowerGeneratingWater(7)
+1.1521022583701999 Ppv
+0.168602844 Pwind
>= 8.6308691063040008

c_l_EnergyDemand(8)_:
+1 PExcess(8)
+0.0001 PowerGeneratingWater(8)
+2.2851615042003597 Ppv
+0.28532809199999998 Pwind
>= 8.9981645533440009

c_l_EnergyDemand(9)_:
+1 PExcess(9)
+0.0001 PowerGeneratingWater(9)
+3.25635514348836 Ppv
+0.42345314399999995 Pwind
>= 8.7226929680640009

c_l_EnergyDemand(10)_:
+1 PExcess(10)
+0.0001 PowerGeneratingWater(10)
+3.9657073604143194 Ppv
+0.77006181600000001 Pwind
>= 8.6308691063040008

c_l_EnergyDemand(11)_:
+1 PExcess(11)
+0.0001 PowerGeneratingWater(11)
+4.3037208329102405 Ppv
+1.3747637399999999 Pwind
>= 8.6308691063040008

c_l_EnergyDemand(12)_:
+1 PExcess(12)
+0.0001 PowerGeneratingWater(12)
+4.2799170672417599 Ppv
+2.296892148 Pwind
>= 9.2735644012320009

c_l_EnergyDemand(13)_:
+1 PExcess(13)
+0.0001 PowerGeneratingWater(13)
+3.88953531028044 Ppv
+2.8970546400000003 Pwind
>= 8.9981645533440009

c_l_EnergyDemand(14)_:
+1 PExcess(14)
+0.0001 PowerGeneratingWater(14)
+3.1659008339428802 Ppv
+2.7932985720000003 Pwind
>= 8.3553975210240008

c_l_EnergyDemand(15)_:
+1 PExcess(15)
+0.0001 PowerGeneratingWater(15)
+2.1756641821236005 Ppv
+1.845555048 Pwind
>= 8.2635736592640008

c_l_EnergyDemand(16)_:
+1 PExcess(16)
+0.0001 PowerGeneratingWater(16)
+1.01880117062496 Ppv
+0.82356088799999994 Pwind
>= 8.2635736592640008

c_l_EnergyDemand(17)_:
+1 PExcess(17)
+0.0001 PowerGeneratingWater(17)
+0.090454309541342648 Ppv
+0.38713856400000002 Pwind
>= 9.0899166777120008

c_l_EnergyDemand(18)_:
+1 PExcess(18)
+0.0001 PowerGeneratingWater(18)
+0.35082398400000003 Pwind
>= 9.916331433552001

c_l_EnergyDemand(19)_:
+1 PExcess(19)
+0.0001 PowerGeneratingWater(19)
+0.28532809199999998 Pwind
>= 10.926322175520001

c_l_EnergyDemand(20)_:
+1 PExcess(20)
+0.0001 PowerGeneratingWater(20)
+0.35082398400000003 Pwind
>= 10.559026728480001

c_l_EnergyDemand(21)_:
+1 PExcess(21)
+0.0001 PowerGeneratingWater(21)
+0.49608230399999997 Pwind
>= 9.7326837100320009

c_l_EnergyDemand(22)_:
+1 PExcess(22)
+0.0001 PowerGeneratingWater(22)
+0.58427448000000004 Pwind
>= 8.7226929680640009

c_l_EnergyDemand(23)_:
+1 PExcess(23)
+0.0001 PowerGeneratingWater(23)
+0.54017839199999995 Pwind
>= 7.8963499496159999

c_l_EnergyDemand(24)_:
+1 PExcess(24)
+0.0001 PowerGeneratingWater(24)
+0.45976772399999999 Pwind
>= 5.8763325969840006

c_l_EnergyDemand(25)_:
+1 PExcess(25)
+0.0001 PowerGeneratingWater(25)
+0.168602844 Pwind
>= 5.6926992209424014

c_l_EnergyDemand(26)_:
+1 PExcess(26)
+0.0001 PowerGeneratingWater(26)
>= 5.6008825329216005

c_l_EnergyDemand(27)_:
+1 PExcess(27)
+0.0001 PowerGeneratingWater(27)
>= 5.6008825329216005

c_l_EnergyDemand(28)_:
+1 PExcess(28)
+0.0001 PowerGeneratingWater(28)
>= 5.8763325969840006

c_l_EnergyDemand(29)_:
+1 PExcess(29)
+0.0001 PowerGeneratingWater(29)
>= 6.4272398988480006

c_l_EnergyDemand(30)_:
+1 PExcess(30)
+0.0001 PowerGeneratingWater(30)
+0.14282259401264602 Ppv
>= 7.1617805767536007

c_u_MaxWaterPower(1)_:
+0.0001 PowerGeneratingWater(1)
<= 100

c_u_MaxWaterPower(2)_:
+0.0001 PowerGeneratingWater(2)
<= 100

c_u_MaxWaterPower(3)_:
+0.0001 PowerGeneratingWater(3)
<= 100

c_u_MaxWaterPower(4)_:
+0.0001 PowerGeneratingWater(4)
<= 100

c_u_MaxWaterPower(5)_:
+0.0001 PowerGeneratingWater(5)
<= 100

c_u_MaxWaterPower(6)_:
+0.0001 PowerGeneratingWater(6)
<= 100

c_u_MaxWaterPower(7)_:
+0.0001 PowerGeneratingWater(7)
<= 100

c_u_MaxWaterPower(8)_:
+0.0001 PowerGeneratingWater(8)
<= 100

c_u_MaxWaterPower(9)_:
+0.0001 PowerGeneratingWater(9)
<= 100

c_u_MaxWaterPower(10)_:
+0.0001 PowerGeneratingWater(10)
<= 100

c_u_MaxWaterPower(11)_:
+0.0001 PowerGeneratingWater(11)
<= 100

c_u_MaxWaterPower(12)_:
+0.0001 PowerGeneratingWater(12)
<= 100

c_u_MaxWaterPower(13)_:
+0.0001 PowerGeneratingWater(13)
<= 100

c_u_MaxWaterPower(14)_:
+0.0001 PowerGeneratingWater(14)
<= 100

c_u_MaxWaterPower(15)_:
+0.0001 PowerGeneratingWater(15)
<= 100

c_u_MaxWaterPower(16)_:
+0.0001 PowerGeneratingWater(16)
<= 100

c_u_MaxWaterPower(17)_:
+0.0001 PowerGeneratingWater(17)
<= 100

c_u_MaxWaterPower(18)_:
+0.0001 PowerGeneratingWater(18)
<= 100

c_u_MaxWaterPower(19)_:
+0.0001 PowerGeneratingWater(19)
<= 100

c_u_MaxWaterPower(20)_:
+0.0001 PowerGeneratingWater(20)
<= 100

c_u_MaxWaterPower(21)_:
+0.0001 PowerGeneratingWater(21)
<= 100

c_u_MaxWaterPower(22)_:
+0.0001 PowerGeneratingWater(22)
<= 100

c_u_MaxWaterPower(23)_:
+0.0001 PowerGeneratingWater(23)
<= 100

c_u_MaxWaterPower(24)_:
+0.0001 PowerGeneratingWater(24)
<= 100

c_u_MaxWaterPower(25)_:
+0.0001 PowerGeneratingWater(25)
<= 100

c_u_MaxWaterPower(26)_:
+0.0001 PowerGeneratingWater(26)
<= 100

c_u_MaxWaterPower(27)_:
+0.0001 PowerGeneratingWater(27)
<= 100

c_u_MaxWaterPower(28)_:
+0.0001 PowerGeneratingWater(28)
<= 100

c_u_MaxWaterPower(29)_:
+0.0001 PowerGeneratingWater(29)
<= 100

c_u_MaxWaterPower(30)_:
+0.0001 PowerGeneratingWater(30)
<= 100

c_u_WaterDemand(1)_:
+1 PowerGeneratingWater(1)
<= 90000

c_u_WaterDemand(2)_:
+1 PowerGeneratingWater(1)
+1 PowerGeneratingWater(2)
<= 136340.64997275587

c_u_WaterDemand(3)_:
+1 PowerGeneratingWater(1)
+1 PowerGeneratingWater(2)
+1 PowerGeneratingWater(3)
<= 183721.88040011557

c_u_WaterDemand(4)_:
+1 PowerGeneratingWater(1)
+1 PowerGeneratingWater(2)
+1 PowerGeneratingWater(3)
+1 PowerGeneratingWater(4)
<= 231727.45910023758

c_u_WaterDemand(5)_:
+1 PowerGeneratingWater(1)
+1 PowerGeneratingWater(2)
+1 PowerGeneratingWater(3)
+1 PowerGeneratingWater(4)
+1 PowerGeneratingWater(5)
<= 280149.26998220105

c_u_WaterDemand(6)_:
+1 PowerGeneratingWater(1)
+1 PowerGeneratingWater(2)
+1 PowerGeneratingWater(3)
+1 PowerGeneratingWater(4)
+1 PowerGeneratingWater(5)
+1 PowerGeneratingWater(6)
<= 328154.84868232312

c_u_WaterDemand(7)_:
+1 PowerGeneratingWater(1)
+1 PowerGeneratingWater(2)
+1 PowerGeneratingWater(3)
+1 PowerGeneratingWater(4)
+1 PowerGeneratingWater(5)
+1 PowerGeneratingWater(6)
+1 PowerGeneratingWater(7)
<= 375119.84692784131

c_u_WaterDemand(8)_:
+1 PowerGeneratingWater(1)
+1 PowerGeneratingWater(2)
+1 PowerGeneratingWater(3)
+1 PowerGeneratingWater(4)
+1 PowerGeneratingWater(5)
+1 PowerGeneratingWater(6)
+1 PowerGeneratingWater(7)
+1 PowerGeneratingWater(8)
<= 419327.30696864106

c_u_WaterDemand(9)_:
+1 PowerGeneratingWater(1)
+1 PowerGeneratingWater(2)
+1 PowerGeneratingWater(3)
+1 PowerGeneratingWater(4)
+1 PowerGeneratingWater(5)
+1 PowerGeneratingWater(6)
+1 PowerGeneratingWater(7)
+1 PowerGeneratingWater(8)
+1 PowerGeneratingWater(9)
<= 462129.98339575191

c_u_WaterDemand(10)_:
+1 PowerGeneratingWater(1)
+1 PowerGeneratingWater(10)
+1 PowerGeneratingWater(2)
+1 PowerGeneratingWater(3)
+1 PowerGeneratingWater(4)
+1 PowerGeneratingWater(5)
+1 PowerGeneratingWater(6)
+1 PowerGeneratingWater(7)
+1 PowerGeneratingWater(8)
+1 PowerGeneratingWater(9)
<= 504568.45666373626

c_u_WaterDemand(11)_:
+1 PowerGeneratingWater(1)
+1 PowerGeneratingWater(10)
+1 PowerGeneratingWater(11)
+1 PowerGeneratingWater(2)
+1 PowerGeneratingWater(3)
+1 PowerGeneratingWater(4)
+1 PowerGeneratingWater(5)
+1 PowerGeneratingWater(6)
+1 PowerGeneratingWater(7)
+1 PowerGeneratingWater(8)
+1 PowerGeneratingWater(9)
<= 547527.2201590247

c_u_WaterDemand(12)_:
+1 PowerGeneratingWater(1)
+1 PowerGeneratingWater(10)
+1 PowerGeneratingWater(11)
+1 PowerGeneratingWater(12)
+1 PowerGeneratingWater(2)
+1 PowerGeneratingWater(3)
+1 PowerGeneratingWater(4)
+1 PowerGeneratingWater(5)
+1 PowerGeneratingWater(6)
+1 PowerGeneratingWater(7)
+1 PowerGeneratingWater(8)
+1 PowerGeneratingWater(9)
<= 591526.56410892098

c_u_WaterDemand(13)_:
+1 PowerGeneratingWater(1)
+1 PowerGeneratingWater(10)
+1 PowerGeneratingWater(11)
+1 PowerGeneratingWater(12)
+1 PowerGeneratingWater(13)
+1 PowerGeneratingWater(2)
+1 PowerGeneratingWater(3)
+1 PowerGeneratingWater(4)
+1 PowerGeneratingWater(5)
+1 PowerGeneratingWater(6)
+1 PowerGeneratingWater(7)
+1 PowerGeneratingWater(8)
+1 PowerGeneratingWater(9)
<= 636150.25633157301

c_u_WaterDemand(14)_:
+1 PowerGeneratingWater(1)
+1 PowerGeneratingWater(10)
+1 PowerGeneratingWater(11)
+1 PowerGeneratingWater(12)
+1 PowerGeneratingWater(13)
+1 PowerGeneratingWater(14)
+1 PowerGeneratingWater(2)
+1 PowerGeneratingWater(3)
+1 PowerGeneratingWater(4)
+1 PowerGeneratingWater(5)
+1 PowerGeneratingWater(6)
+1 PowerGeneratingWater(7)
+1 PowerGeneratingWater(8)
+1 PowerGeneratingWater(9)
<= 680982.06464517373

c_u_WaterDemand(15)_:
+1 PowerGeneratingWater(1)
+1 PowerGeneratingWater(10)
+1 PowerGeneratingWater(11)
+1 PowerGeneratingWater(12)
+1 PowerGeneratingWater(13)
+1 PowerGeneratingWater(14)
+1 PowerGeneratingWater(15)
+1 PowerGeneratingWater(2)
+1 PowerGeneratingWater(3)
+1 PowerGeneratingWater(4)
+1 PowerGeneratingWater(5)
+1 PowerGeneratingWater(6)
+1 PowerGeneratingWater(7)
+1 PowerGeneratingWater(8)
+1 PowerGeneratingWater(9)
<= 725865.90198150044

c_u_WaterDemand(16)_:
+1 PowerGeneratingWater(1)
+1 PowerGeneratingWater(10)
+1 PowerGeneratingWater(11)
+1 PowerGeneratingWater(12)
+1 PowerGeneratingWater(13)
+1 PowerGeneratingWater(14)
+1 PowerGeneratingWater(15)
+1 PowerGeneratingWater(16)
+1 PowerGeneratingWater(2)
+1 PowerGeneratingWater(3)
+1 PowerGeneratingWater(4)
+1 PowerGeneratingWater(5)
+1 PowerGeneratingWater(6)
+1 PowerGeneratingWater(7)
+1 PowerGeneratingWater(8)
+1 PowerGeneratingWater(9)
<= 770801.76834055292

c_u_WaterDemand(17)_:
+1 PowerGeneratingWater(1)
+1 PowerGeneratingWater(10)
+1 PowerGeneratingWater(11)
+1 PowerGeneratingWater(12)
+1 PowerGeneratingWater(13)
+1 PowerGeneratingWater(14)
+1 PowerGeneratingWater(15)
+1 PowerGeneratingWater(16)
+1 PowerGeneratingWater(17)
+1 PowerGeneratingWater(2)
+1 PowerGeneratingWater(3)
+1 PowerGeneratingWater(4)
+1 PowerGeneratingWater(5)
+1 PowerGeneratingWater(6)
+1 PowerGeneratingWater(7)
+1 PowerGeneratingWater(8)
+1 PowerGeneratingWater(9)
<= 815789.66372233129

c_u_WaterDemand(18)_:
+1 PowerGeneratingWater(1)
+1 PowerGeneratingWater(10)
+1 PowerGeneratingWater(11)
+1 PowerGeneratingWater(12)
+1 PowerGeneratingWater(13)
+1 PowerGeneratingWater(14)
+1 PowerGeneratingWater(15)
+1 PowerGeneratingWater(16)
+1 PowerGeneratingWater(17)
+1 PowerGeneratingWater(18)
+1 PowerGeneratingWater(2)
+1 PowerGeneratingWater(3)
+1 PowerGeneratingWater(4)
+1 PowerGeneratingWater(5)
+1 PowerGeneratingWater(6)
+1 PowerGeneratingWater(7)
+1 PowerGeneratingWater(8)
+1 PowerGeneratingWater(9)
<= 860309.29789953155

c_u_WaterDemand(19)_:
+1 PowerGeneratingWater(1)
+1 PowerGeneratingWater(10)
+1 PowerGeneratingWater(11)
+1 PowerGeneratingWater(12)
+1 PowerGeneratingWater(13)
+1 PowerGeneratingWater(14)
+1 PowerGeneratingWater(15)
+1 PowerGeneratingWater(16)
+1 PowerGeneratingWater(17)
+1 PowerGeneratingWater(18)
+1 PowerGeneratingWater(19)
+1 PowerGeneratingWater(2)
+1 PowerGeneratingWater(3)
+1 PowerGeneratingWater(4)
+1 PowerGeneratingWater(5)
+1 PowerGeneratingWater(6)
+1 PowerGeneratingWater(7)
+1 PowerGeneratingWater(8)
+1 PowerGeneratingWater(9)
<= 904048.49673579854

c_u_WaterDemand(20)_:
+1 PowerGeneratingWater(1)
+1 PowerGeneratingWater(10)
+1 PowerGeneratingWater(11)
+1 PowerGeneratingWater(12)
+1 PowerGeneratingWater(13)
+1 PowerGeneratingWater(14)
+1 PowerGeneratingWater(15)
+1 PowerGeneratingWater(16)
+1 PowerGeneratingWater(17)
+1 PowerGeneratingWater(18)
+1 PowerGeneratingWater(19)
+1 PowerGeneratingWater(2)
+1 PowerGeneratingWater(20)
+1 PowerGeneratingWater(3)
+1 PowerGeneratingWater(4)
+1 PowerGeneratingWater(5)
+1 PowerGeneratingWater(6)
+1 PowerGeneratingWater(7)
+1 PowerGeneratingWater(8)
+1 PowerGeneratingWater(9)
<= 946747.11511745758

c_u_WaterDemand(21)_:
+1 PowerGeneratingWater(1)
+1 PowerGeneratingWater(10)
+1 PowerGeneratingWater(11)
+1 PowerGeneratingWater(12)
+1 PowerGeneratingWater(13)
+1 PowerGeneratingWater(14)
+1 PowerGeneratingWater(15)
+1 PowerGeneratingWater(16)
+1 PowerGeneratingWater(17)
+1 PowerGeneratingWater(18)
+1 PowerGeneratingWater(19)
+1 PowerGeneratingWater(2)
+1 PowerGeneratingWater(20)
+1 PowerGeneratingWater(21)
+1 PowerGeneratingWater(3)
+1 PowerGeneratingWater(4)
+1 PowerGeneratingWater(5)
+1 PowerGeneratingWater(6)
+1 PowerGeneratingWater(7)
+1 PowerGeneratingWater(8)
+1 PowerGeneratingWater(9)
<= 989029.5013172644

c_u_WaterDemand(22)_:
+1 PowerGeneratingWater(1)
+1 PowerGeneratingWater(10)
+1 PowerGeneratingWater(11)
+1 PowerGeneratingWater(12)
+1 PowerGeneratingWater(13)
+1 PowerGeneratingWater(14)
+1 PowerGeneratingWater(15)
+1 PowerGeneratingWater(16)
+1 PowerGeneratingWater(17)
+1 PowerGeneratingWater(18)
+1 PowerGeneratingWater(19)
+1 PowerGeneratingWater(2)
+1 PowerGeneratingWater(20)
+1 PowerGeneratingWater(21)
+1 PowerGeneratingWater(22)
+1 PowerGeneratingWater(3)
+1 PowerGeneratingWater(4)
+1 PowerGeneratingWater(5)
+1 PowerGeneratingWater(6)
+1 PowerGeneratingWater(7)
+1 PowerGeneratingWater(8)
+1 PowerGeneratingWater(9)
<= 1031624.0616534264

c_u_WaterDemand(23)_:
+1 PowerGeneratingWater(1)
+1 PowerGeneratingWater(10)
+1 PowerGeneratingWater(11)
+1 PowerGeneratingWater(12)
+1 PowerGeneratingWater(13)
+1 PowerGeneratingWater(14)
+1 PowerGeneratingWater(15)
+1 PowerGeneratingWater(16)
+1 PowerGeneratingWater(17)
+1 PowerGeneratingWater(18)
+1 PowerGeneratingWater(19)
+1 PowerGeneratingWater(2)
+1 PowerGeneratingWater(20)
+1 PowerGeneratingWater(21)
+1 PowerGeneratingWater(22)
+1 PowerGeneratingWater(23)
+1 PowerGeneratingWater(3)
+1 PowerGeneratingWater(4)
+1 PowerGeneratingWater(5)
+1 PowerGeneratingWater(6)
+1 PowerGeneratingWater(7)
+1 PowerGeneratingWater(8)
+1 PowerGeneratingWater(9)
<= 1074842.9702623896

c_u_WaterDemand(24)_:
+1 PowerGeneratingWater(1)
+1 PowerGeneratingWater(10)
+1 PowerGeneratingWater(11)
+1 PowerGeneratingWater(12)
+1 PowerGeneratingWater(13)
+1 PowerGeneratingWater(14)
+1 PowerGeneratingWater(15)
+1 PowerGeneratingWater(16)
+1 PowerGeneratingWater(17)
+1 PowerGeneratingWater(18)
+1 PowerGeneratingWater(19)
+1 PowerGeneratingWater(2)
+1 PowerGeneratingWater(20)
+1 PowerGeneratingWater(21)
+1 PowerGeneratingWater(22)
+1 PowerGeneratingWater(23)
+1 PowerGeneratingWater(24)
+1 PowerGeneratingWater(3)
+1 PowerGeneratingWater(4)
+1 PowerGeneratingWater(5)
+1 PowerGeneratingWater(6)
+1 PowerGeneratingWater(7)
+1 PowerGeneratingWater(8)
+1 PowerGeneratingWater(9)
<= 1119102.4593259152

c_u_WaterDemand(25)_:
+1 PowerGeneratingWater(1)
+1 PowerGeneratingWater(10)
+1 PowerGeneratingWater(11)
+1 PowerGeneratingWater(12)
+1 PowerGeneratingWater(13)
+1 PowerGeneratingWater(14)
+1 PowerGeneratingWater(15)
+1 PowerGeneratingWater(16)
+1 PowerGeneratingWater(17)
+1 PowerGeneratingWater(18)
+1 PowerGeneratingWater(19)
+1 PowerGeneratingWater(2)
+1 PowerGeneratingWater(20)
+1 PowerGeneratingWater(21)
+1 PowerGeneratingWater(22)
+1 PowerGeneratingWater(23)
+1 PowerGeneratingWater(24)
+1 PowerGeneratingWater(25)
+1 PowerGeneratingWater(3)
+1 PowerGeneratingWater(4)
+1 PowerGeneratingWater(5)
+1 PowerGeneratingWater(6)
+1 PowerGeneratingWater(7)
+1 PowerGeneratingWater(8)
+1 PowerGeneratingWater(9)
<= 1164922.8190713692

c_u_WaterDemand(26)_:
+1 PowerGeneratingWater(1)
+1 PowerGeneratingWater(10)
+1 PowerGeneratingWater(11)
+1 PowerGeneratingWater(12)
+1 PowerGeneratingWater(13)
+1 PowerGeneratingWater(14)
+1 PowerGeneratingWater(15)
+1 PowerGeneratingWater(16)
+1 PowerGeneratingWater(17)
+1 PowerGeneratingWater(18)
+1 PowerGeneratingWater(19)
+1 PowerGeneratingWater(2)
+1 PowerGeneratingWater(20)
+1 PowerGeneratingWater(21)
+1 PowerGeneratingWater(22)
+1 PowerGeneratingWater(23)
+1 PowerGeneratingWater(24)
+1 PowerGeneratingWater(25)
+1 PowerGeneratingWater(26)
+1 PowerGeneratingWater(3)
+1 PowerGeneratingWater(4)
+1 PowerGeneratingWater(5)
+1 PowerGeneratingWater(6)
+1 PowerGeneratingWater(7)
+1 PowerGeneratingWater(8)
+1 PowerGeneratingWater(9)
<= 1211263.4690441252

c_u_WaterDemand(27)_:
+1 PowerGeneratingWater(1)
+1 PowerGeneratingWater(10)
+1 PowerGeneratingWater(11)
+1 PowerGeneratingWater(12)
+1 PowerGeneratingWater(13)
+1 PowerGeneratingWater(14)
+1 PowerGeneratingWater(15)
+1 PowerGeneratingWater(16)
+1 PowerGeneratingWater(17)
+1 PowerGeneratingWater(18)
+1 PowerGeneratingWater(19)
+1 PowerGeneratingWater(2)
+1 PowerGeneratingWater(20)
+1 PowerGeneratingWater(21)
+1 PowerGeneratingWater(22)
+1 PowerGeneratingWater(23)
+1 PowerGeneratingWater(24)
+1 PowerGeneratingWater(25)
+1 PowerGeneratingWater(26)
+1 PowerGeneratingWater(27)
+1 PowerGeneratingWater(3)
+1 PowerGeneratingWater(4)
+1 PowerGeneratingWater(5)
+1 PowerGeneratingWater(6)
+1 PowerGeneratingWater(7)
+1 PowerGeneratingWater(8)
+1 PowerGeneratingWater(9)
<= 1258644.6994714851

c_u_WaterDemand(28)_:
+1 PowerGeneratingWater(1)
+1 PowerGeneratingWater(10)
+1 PowerGeneratingWater(11)
+1 PowerGeneratingWater(12)
+1 PowerGeneratingWater(13)
+1 PowerGeneratingWater(14)
+1 PowerGeneratingWater(15)
+1 PowerGeneratingWater(16)
+1 PowerGeneratingWater(17)
+1 PowerGeneratingWater(18)
+1 PowerGeneratingWater(19)
+1 PowerGeneratingWater(2)
+1 PowerGeneratingWater(20)
+1 PowerGeneratingWater(21)
+1 PowerGeneratingWater(22)
+1 PowerGeneratingWater(23)
+1 PowerGeneratingWater(24)
+1 PowerGeneratingWater(25)
+1 PowerGeneratingWater(26)
+1 PowerGeneratingWater(27)
+1 PowerGeneratingWater(28)
+1 PowerGeneratingWater(3)
+1 PowerGeneratingWater(4)
+1 PowerGeneratingWater(5)
+1 PowerGeneratingWater(6)
+1 PowerGeneratingWater(7)
+1 PowerGeneratingWater(8)
+1 PowerGeneratingWater(9)
<= 1306650.2781716071

c_u_WaterDemand(29)_:
+1 PowerGeneratingWater(1)
+1 PowerGeneratingWater(10)
+1 PowerGeneratingWater(11)
+1 PowerGeneratingWater(12)
+1 PowerGeneratingWater(13)
+1 PowerGeneratingWater(14)
+1 PowerGeneratingWater(15)
+1 PowerGeneratingWater(16)
+1 PowerGeneratingWater(17)
+1 PowerGeneratingWater(18)
+1 PowerGeneratingWater(19)
+1 PowerGeneratingWater(2)
+1 PowerGeneratingWater(20)
+1 PowerGeneratingWater(21)
+1 PowerGeneratingWater(22)
+1 PowerGeneratingWater(23)
+1 PowerGeneratingWater(24)
+1 PowerGeneratingWater(25)
+1 PowerGeneratingWater(26)
+1 PowerGeneratingWater(27)
+1 PowerGeneratingWater(28)
+1 PowerGeneratingWater(29)
+1 PowerGeneratingWater(3)
+1 PowerGeneratingWater(4)
+1 PowerGeneratingWater(5)
+1 PowerGeneratingWater(6)
+1 PowerGeneratingWater(7)
+1 PowerGeneratingWater(8)
+1 PowerGeneratingWater(9)
<= 1355072.0890535708

c_u_WaterDemand(30)_:
+1 PowerGeneratingWater(1)
+1 PowerGeneratingWater(10)
+1 PowerGeneratingWater(11)
+1 PowerGeneratingWater(12)
+1 PowerGeneratingWater(13)
+1 PowerGeneratingWater(14)
+1 PowerGeneratingWater(15)
+1 PowerGeneratingWater(16)
+1 PowerGeneratingWater(17)
+1 PowerGeneratingWater(18)
+1 PowerGeneratingWater(19)
+1 PowerGeneratingWater(2)
+1 PowerGeneratingWater(20)
+1 PowerGeneratingWater(21)
+1 PowerGeneratingWater(22)
+1 PowerGeneratingWater(23)
+1 PowerGeneratingWater(24)
+1 PowerGeneratingWater(25)
+1 PowerGeneratingWater(26)
+1 PowerGeneratingWater(27)
+1 PowerGeneratingWater(28)
+1 PowerGeneratingWater(29)
+1 PowerGeneratingWater(3)
+1 PowerGeneratingWater(30)
+1 PowerGeneratingWater(4)
+1 PowerGeneratingWater(5)
+1 PowerGeneratingWater(6)
+1 PowerGeneratingWater(7)
+1 PowerGeneratingWater(8)
+1 PowerGeneratingWater(9)
<= 1403077.6677536927

c_u_MaxStorageCapacity(1)_:
+0 ONE_VAR_CONSTANT
<= 0

c_u_MaxStorageCapacity(2)_:
-1 PowerGeneratingWater(1)
<= -46340.649972755869

c_u_MaxStorageCapacity(3)_:
-1 PowerGeneratingWater(1)
-1 PowerGeneratingWater(2)
<= -93721.880400115566

c_u_MaxStorageCapacity(4)_:
-1 PowerGeneratingWater(1)
-1 PowerGeneratingWater(2)
-1 PowerGeneratingWater(3)
<= -141727.45910023758

c_u_MaxStorageCapacity(5)_:
-1 PowerGeneratingWater(1)
-1 PowerGeneratingWater(2)
-1 PowerGeneratingWater(3)
-1 PowerGeneratingWater(4)
<= -190149.26998220105

c_u_MaxStorageCapacity(6)_:
-1 PowerGeneratingWater(1)
-1 PowerGeneratingWater(2)
-1 PowerGeneratingWater(3)
-1 PowerGeneratingWater(4)
-1 PowerGeneratingWater(5)
<= -238154.84868232312

c_u_MaxStorageCapacity(7)_:
-1 PowerGeneratingWater(1)
-1 PowerGeneratingWater(2)
-1 PowerGeneratingWater(3)
-1 PowerGeneratingWater(4)
-1 PowerGeneratingWater(5)
-1 PowerGeneratingWater(6)
<= -285119.84692784131

c_u_MaxStorageCapacity(8)_:
-1 PowerGeneratingWater(1)
-1 PowerGeneratingWater(2)
-1 PowerGeneratingWater(3)
-1 PowerGeneratingWater(4)
-1 PowerGeneratingWater(5)
-1 PowerGeneratingWater(6)
-1 PowerGeneratingWater(7)
<= -329327.30696864106

c_u_MaxStorageCapacity(9)_:
-1 PowerGeneratingWater(1)
-1 PowerGeneratingWater(2)
-1 PowerGeneratingWater(3)
-1 PowerGeneratingWater(4)
-1 PowerGeneratingWater(5)
-1 PowerGeneratingWater(6)
-1 PowerGeneratingWater(7)
-1 PowerGeneratingWater(8)
<= -372129.98339575191

c_u_MaxStorageCapacity(10)_:
-1 PowerGeneratingWater(1)
-1 PowerGeneratingWater(2)
-1 PowerGeneratingWater(3)
-1 PowerGeneratingWater(4)
-1 PowerGeneratingWater(5)
-1 PowerGeneratingWater(6)
-1 PowerGeneratingWater(7)
-1 PowerGeneratingWater(8)
-1 PowerGeneratingWater(9)
<= -414568.45666373626

c_u_MaxStorageCapacity(11)_:
-1 PowerGeneratingWater(1)
-1 PowerGeneratingWater(10)
-1 PowerGeneratingWater(2)
-1 PowerGeneratingWater(3)
-1 PowerGeneratingWater(4)
-1 PowerGeneratingWater(5)
-1 PowerGeneratingWater(6)
-1 PowerGeneratingWater(7)
-1 PowerGeneratingWater(8)
-1 PowerGeneratingWater(9)
<= -457527.2201590247

c_u_MaxStorageCapacity(12)_:
-1 PowerGeneratingWater(1)
-1 PowerGeneratingWater(10)
-1 PowerGeneratingWater(11)
-1 PowerGeneratingWater(2)
-1 PowerGeneratingWater(3)
-1 PowerGeneratingWater(4)
-1 PowerGeneratingWater(5)
-1 PowerGeneratingWater(6)
-1 PowerGeneratingWater(7)
-1 PowerGeneratingWater(8)
-1 PowerGeneratingWater(9)
<= -501526.56410892098

c_u_MaxStorageCapacity(13)_:
-1 PowerGeneratingWater(1)
-1 PowerGeneratingWater(10)
-1 PowerGeneratingWater(11)
-1 PowerGeneratingWater(12)
-1 PowerGeneratingWater(2)
-1 PowerGeneratingWater(3)
-1 PowerGeneratingWater(4)
-1 PowerGeneratingWater(5)
-1 PowerGeneratingWater(6)
-1 PowerGeneratingWater(7)
-1 PowerGeneratingWater(8)
-1 PowerGeneratingWater(9)
<= -546150.25633157301

c_u_MaxStorageCapacity(14)_:
-1 PowerGeneratingWater(1)
-1 PowerGeneratingWater(10)
-1 PowerGeneratingWater(11)
-1 PowerGeneratingWater(12)
-1 PowerGeneratingWater(13)
-1 PowerGeneratingWater(2)
-1 PowerGeneratingWater(3)
-1 PowerGeneratingWater(4)
-1 PowerGeneratingWater(5)
-1 PowerGeneratingWater(6)
-1 PowerGeneratingWater(7)
-1 PowerGeneratingWater(8)
-1 PowerGeneratingWater(9)
<= -590982.06464517373

c_u_MaxStorageCapacity(15)_:
-1 PowerGeneratingWater(1)
-1 PowerGeneratingWater(10)
-1 PowerGeneratingWater(11)
-1 PowerGeneratingWater(12)
-1 PowerGeneratingWater(13)
-1 PowerGeneratingWater(14)
-1 PowerGeneratingWater(2)
-1 PowerGeneratingWater(3)
-1 PowerGeneratingWater(4)
-1 PowerGeneratingWater(5)
-1 PowerGeneratingWater(6)
-1 PowerGeneratingWater(7)
-1 PowerGeneratingWater(8)
-1 PowerGeneratingWater(9)
<= -635865.90198150044

c_u_MaxStorageCapacity(16)_:
-1 PowerGeneratingWater(1)
-1 PowerGeneratingWater(10)
-1 PowerGeneratingWater(11)
-1 PowerGeneratingWater(12)
-1 PowerGeneratingWater(13)
-1 PowerGeneratingWater(14)
-1 PowerGeneratingWater(15)
-1 PowerGeneratingWater(2)
-1 PowerGeneratingWater(3)
-1 PowerGeneratingWater(4)
-1 PowerGeneratingWater(5)
-1 PowerGeneratingWater(6)
-1 PowerGeneratingWater(7)
-1 PowerGeneratingWater(8)
-1 PowerGeneratingWater(9)
<= -680801.76834055292

c_u_MaxStorageCapacity(17)_:
-1 PowerGeneratingWater(1)
-1 PowerGeneratingWater(10)
-1 PowerGeneratingWater(11)
-1 PowerGeneratingWater(12)
-1 PowerGeneratingWater(13)
-1 PowerGeneratingWater(14)
-1 PowerGeneratingWater(15)
-1 PowerGeneratingWater(16)
-1 PowerGeneratingWater(2)
-1 PowerGeneratingWater(3)
-1 PowerGeneratingWater(4)
-1 PowerGeneratingWater(5)
-1 PowerGeneratingWater(6)
-1 PowerGeneratingWater(7)
-1 PowerGeneratingWater(8)
-1 PowerGeneratingWater(9)
<= -725789.66372233129

c_u_MaxStorageCapacity(18)_:
-1 PowerGeneratingWater(1)
-1 PowerGeneratingWater(10)
-1 PowerGeneratingWater(11)
-1 PowerGeneratingWater(12)
-1 PowerGeneratingWater(13)
-1 PowerGeneratingWater(14)
-1 PowerGeneratingWater(15)
-1 PowerGeneratingWater(16)
-1 PowerGeneratingWater(17)
-1 PowerGeneratingWater(2)
-1 PowerGeneratingWater(3)
-1 PowerGeneratingWater(4)
-1 PowerGeneratingWater(5)
-1 PowerGeneratingWater(6)
-1 PowerGeneratingWater(7)
-1 PowerGeneratingWater(8)
-1 PowerGeneratingWater(9)
<= -770309.29789953155

c_u_MaxStorageCapacity(19)_:
-1 PowerGeneratingWater(1)
-1 PowerGeneratingWater(10)
-1 PowerGeneratingWater(11)
-1 PowerGeneratingWater(12)
-1 PowerGeneratingWater(13)
-1 PowerGeneratingWater(14)
-1 PowerGeneratingWater(15)
-1 PowerGeneratingWater(16)
-1 PowerGeneratingWater(17)
-1 PowerGeneratingWater(18)
-1 PowerGeneratingWater(2)
-1 PowerGeneratingWater(3)
-1 PowerGeneratingWater(4)
-1 PowerGeneratingWater(5)
-1 PowerGeneratingWater(6)
-1 PowerGeneratingWater(7)
-1 PowerGeneratingWater(8)
-1 PowerGeneratingWater(9)
<= -814048.49673579854

c_u_MaxStorageCapacity(20)_:
-1 PowerGeneratingWater(1)
-1 PowerGeneratingWater(10)
-1 PowerGeneratingWater(11)
-1 PowerGeneratingWater(12)
-1 PowerGeneratingWater(13)
-1 PowerGeneratingWater(14)
-1 PowerGeneratingWater(15)
-1 PowerGeneratingWater(16)
-1 PowerGeneratingWater(17)
-1 PowerGeneratingWater(18)
-1 PowerGeneratingWater(19)
-1 PowerGeneratingWater(2)
-1 PowerGeneratingWater(3)
-1 PowerGeneratingWater(4)
-1 PowerGeneratingWater(5)
-1 PowerGeneratingWater(6)
-1 PowerGeneratingWater(7)
-1 PowerGeneratingWater(8)
-1 PowerGeneratingWater(9)
<= -856747.11511745758

c_u_MaxStorageCapacity(21)_:
-1 PowerGeneratingWater(1)
-1 PowerGeneratingWater(10)
-1 PowerGeneratingWater(11)
-1 PowerGeneratingWater(12)
-1 PowerGeneratingWater(13)
-1 PowerGeneratingWater(14)
-1 PowerGeneratingWater(15)
-1 PowerGeneratingWater(16)
-1 PowerGeneratingWater(17)
-1 PowerGeneratingWater(18)
-1 PowerGeneratingWater(19)
-1 PowerGeneratingWater(2)
-1 PowerGeneratingWater(20)
-1 PowerGeneratingWater(3)
-1 PowerGeneratingWater(4)
-1 PowerGeneratingWater(5)
-1 PowerGeneratingWater(6)
-1 PowerGeneratingWater(7)
-1 PowerGeneratingWater(8)
-1 PowerGeneratingWater(9)
<= -899029.5013172644

c_u_MaxStorageCapacity(22)_:
-1 PowerGeneratingWater(1)
-1 PowerGeneratingWater(10)
-1 PowerGeneratingWater(11)
-1 PowerGeneratingWater(12)
-1 PowerGeneratingWater(13)
-1 PowerGeneratingWater(14)
-1 PowerGeneratingWater(15)
-1 PowerGeneratingWater(16)
-1 PowerGeneratingWater(17)
-1 PowerGeneratingWater(18)
-1 PowerGeneratingWater(19)
-1 PowerGeneratingWater(2)
-1 PowerGeneratingWater(20)
-1 PowerGeneratingWater(21)
-1 PowerGeneratingWater(3)
-1 PowerGeneratingWater(4)
-1 PowerGeneratingWater(5)
-1 PowerGeneratingWater(6)
-1 PowerGeneratingWater(7)
-1 PowerGeneratingWater(8)
-1 PowerGeneratingWater(9)
<= -941624.06165342638

c_u_MaxStorageCapacity(23)_:
-1 PowerGeneratingWater(1)
-1 PowerGeneratingWater(10)
-1 PowerGeneratingWater(11)
-1 PowerGeneratingWater(12)
-1 PowerGeneratingWater(13)
-1 PowerGeneratingWater(14)
-1 PowerGeneratingWater(15)
-1 PowerGeneratingWater(16)
-1 PowerGeneratingWater(17)
-1 PowerGeneratingWater(18)
-1 PowerGeneratingWater(19)
-1 PowerGeneratingWater(2)
-1 PowerGeneratingWater(20)
-1 PowerGeneratingWater(21)
-1 PowerGeneratingWater(22)
-1 PowerGeneratingWater(3)
-1 PowerGeneratingWater(4)
-1 PowerGeneratingWater(5)
-1 PowerGeneratingWater(6)
-1 PowerGeneratingWater(7)
-1 PowerGeneratingWater(8)
-1 PowerGeneratingWater(9)
<= -984842.97026238963

c_u_MaxStorageCapacity(24)_:
-1 PowerGeneratingWater(1)
-1 PowerGeneratingWater(10)
-1 PowerGeneratingWater(11)
-1 PowerGeneratingWater(12)
-1 PowerGeneratingWater(13)
-1 PowerGeneratingWater(14)
-1 PowerGeneratingWater(15)
-1 PowerGeneratingWater(16)
-1 PowerGeneratingWater(17)
-1 PowerGeneratingWater(18)
-1 PowerGeneratingWater(19)
-1 PowerGeneratingWater(2)
-1 PowerGeneratingWater(20)
-1 PowerGeneratingWater(21)
-1 PowerGeneratingWater(22)
-1 PowerGeneratingWater(23)
-1 PowerGeneratingWater(3)
-1 PowerGeneratingWater(4)
-1 PowerGeneratingWater(5)
-1 PowerGeneratingWater(6)
-1 PowerGeneratingWater(7)
-1 PowerGeneratingWater(8)
-1 PowerGeneratingWater(9)
<= -1029102.4593259152

c_u_MaxStorageCapacity(25)_:
-1 PowerGeneratingWater(1)
-1 PowerGeneratingWater(10)
-1 PowerGeneratingWater(11)
-1 PowerGeneratingWater(12)
-1 PowerGeneratingWater(13)
-1 PowerGeneratingWater(14)
-1 PowerGeneratingWater(15)
-1 PowerGeneratingWater(16)
-1 PowerGeneratingWater(17)
-1 PowerGeneratingWater(18)
-1 PowerGeneratingWater(19)
-1 PowerGeneratingWater(2)
-1 PowerGeneratingWater(20)
-1 PowerGeneratingWater(21)
-1 PowerGeneratingWater(22)
-1 PowerGeneratingWater(23)
-1 PowerGeneratingWater(24)
-1 PowerGeneratingWater(3)
-1 PowerGeneratingWater(4)
-1 PowerGeneratingWater(5)
-1 PowerGeneratingWater(6)
-1 PowerGeneratingWater(7)
-1 PowerGeneratingWater(8)
-1 PowerGeneratingWater(9)
<= -1074922.8190713692

c_u_MaxStorageCapacity(26)_:
-1 PowerGeneratingWater(1)
-1 PowerGeneratingWater(10)
-1 PowerGeneratingWater(11)
-1 PowerGeneratingWater(12)
-1 PowerGeneratingWater(13)
-1 PowerGeneratingWater(14)
-1 PowerGeneratingWater(15)
-1 PowerGeneratingWater(16)
-1 PowerGeneratingWater(17)
-1 PowerGeneratingWater(18)
-1 PowerGeneratingWater(19)
-1 PowerGeneratingWater(2)
-1 PowerGeneratingWater(20)
-1 PowerGeneratingWater(21)
-1 PowerGeneratingWater(22)
-1 PowerGeneratingWater(23)
-1 PowerGeneratingWater(24)
-1 PowerGeneratingWater(25)
-1 PowerGeneratingWater(3)
-1 PowerGeneratingWater(4)
-1 PowerGeneratingWater(5)
-1 PowerGeneratingWater(6)
-1 PowerGeneratingWater(7)
-1 PowerGeneratingWater(8)
-1 PowerGeneratingWater(9)
<= -1121263.4690441252

c_u_MaxStorageCapacity(27)_:
-1 PowerGeneratingWater(1)
-1 PowerGeneratingWater(10)
-1 PowerGeneratingWater(11)
-1 PowerGeneratingWater(12)
-1 PowerGeneratingWater(13)
-1 PowerGeneratingWater(14)
-1 PowerGeneratingWater(15)
-1 PowerGeneratingWater(16)
-1 PowerGeneratingWater(17)
-1 PowerGeneratingWater(18)
-1 PowerGeneratingWater(19)
-1 PowerGeneratingWater(2)
-1 PowerGeneratingWater(20)
-1 PowerGeneratingWater(21)
-1 PowerGeneratingWater(22)
-1 PowerGeneratingWater(23)
-1 PowerGeneratingWater(24)
-1 PowerGeneratingWater(25)
-1 PowerGeneratingWater(26)
-1 PowerGeneratingWater(3)
-1 PowerGeneratingWater(4)
-1 PowerGeneratingWater(5)
-1 PowerGeneratingWater(6)
-1 PowerGeneratingWater(7)
-1 PowerGeneratingWater(8)
-1 PowerGeneratingWater(9)
<= -1168644.6994714851

c_u_MaxStorageCapacity(28)_:
-1 PowerGeneratingWater(1)
-1 PowerGeneratingWater(10)
-1 PowerGeneratingWater(11)
-1 PowerGeneratingWater(12)
-1 PowerGeneratingWater(13)
-1 PowerGeneratingWater(14)
-1 PowerGeneratingWater(15)
-1 PowerGeneratingWater(16)
-1 PowerGeneratingWater(17)
-1 PowerGeneratingWater(18)
-1 PowerGeneratingWater(19)
-1 PowerGeneratingWater(2)
-1 PowerGeneratingWater(20)
-1 PowerGeneratingWater(21)
-1 PowerGeneratingWater(22)
-1 PowerGeneratingWater(23)
-1 PowerGeneratingWater(24)
-1 PowerGeneratingWater(25)
-1 PowerGeneratingWater(26)
-1 PowerGeneratingWater(27)
-1 PowerGeneratingWater(3)
-1 PowerGeneratingWater(4)
-1 PowerGeneratingWater(5)
-1 PowerGeneratingWater(6)
-1 PowerGeneratingWater(7)
-1 PowerGeneratingWater(8)
-1 PowerGeneratingWater(9)
<= -1216650.2781716071

c_u_MaxStorageCapacity(29)_:
-1 PowerGeneratingWater(1)
-1 PowerGeneratingWater(10)
-1 PowerGeneratingWater(11)
-1 PowerGeneratingWater(12)
-1 PowerGeneratingWater(13)
-1 PowerGeneratingWater(14)
-1 PowerGeneratingWater(15)
-1 PowerGeneratingWater(16)
-1 PowerGeneratingWater(17)
-1 PowerGeneratingWater(18)
-1 PowerGeneratingWater(19)
-1 PowerGeneratingWater(2)
-1 PowerGeneratingWater(20)
-1 PowerGeneratingWater(21)
-1 PowerGeneratingWater(22)
-1 PowerGeneratingWater(23)
-1 PowerGeneratingWater(24)
-1 PowerGeneratingWater(25)
-1 PowerGeneratingWater(26)
-1 PowerGeneratingWater(27)
-1 PowerGeneratingWater(28)
-1 PowerGeneratingWater(3)
-1 PowerGeneratingWater(4)
-1 PowerGeneratingWater(5)
-1 PowerGeneratingWater(6)
-1 PowerGeneratingWater(7)
-1 PowerGeneratingWater(8)
-1 PowerGeneratingWater(9)
<= -1265072.0890535708

c_u_MaxStorageCapacity(30)_:
-1 PowerGeneratingWater(1)
-1 PowerGeneratingWater(10)
-1 PowerGeneratingWater(11)
-1 PowerGeneratingWater(12)
-1 PowerGeneratingWater(13)
-1 PowerGeneratingWater(14)
-1 PowerGeneratingWater(15)
-1 PowerGeneratingWater(16)
-1 PowerGeneratingWater(17)
-1 PowerGeneratingWater(18)
-1 PowerGeneratingWater(19)
-1 PowerGeneratingWater(2)
-1 PowerGeneratingWater(20)
-1 PowerGeneratingWater(21)
-1 PowerGeneratingWater(22)
-1 PowerGeneratingWater(23)
-1 PowerGeneratingWater(24)
-1 PowerGeneratingWater(25)
-1 PowerGeneratingWater(26)
-1 PowerGeneratingWater(27)
-1 PowerGeneratingWater(28)
-1 PowerGeneratingWater(29)
-1 PowerGeneratingWater(3)
-1 PowerGeneratingWater(4)
-1 PowerGeneratingWater(5)
-1 PowerGeneratingWater(6)
-1 PowerGeneratingWater(7)
-1 PowerGeneratingWater(8)
-1 PowerGeneratingWater(9)
<= -1313077.6677536927

c_e_ONE_VAR_CONSTANT: 
ONE_VAR_CONSTANT = 1.0

bounds
   0 <= Pwind <= +inf
   0 <= Ppv <= +inf
   0 <= PowerGeneratingWater(1) <= +inf
   0 <= PowerGeneratingWater(2) <= +inf
   0 <= PowerGeneratingWater(3) <= +inf
   0 <= PowerGeneratingWater(4) <= +inf
   0 <= PowerGeneratingWater(5) <= +inf
   0 <= PowerGeneratingWater(6) <= +inf
   0 <= PowerGeneratingWater(7) <= +inf
   0 <= PowerGeneratingWater(8) <= +inf
   0 <= PowerGeneratingWater(9) <= +inf
   0 <= PowerGeneratingWater(10) <= +inf
   0 <= PowerGeneratingWater(11) <= +inf
   0 <= PowerGeneratingWater(12) <= +inf
   0 <= PowerGeneratingWater(13) <= +inf
   0 <= PowerGeneratingWater(14) <= +inf
   0 <= PowerGeneratingWater(15) <= +inf
   0 <= PowerGeneratingWater(16) <= +inf
   0 <= PowerGeneratingWater(17) <= +inf
   0 <= PowerGeneratingWater(18) <= +inf
   0 <= PowerGeneratingWater(19) <= +inf
   0 <= PowerGeneratingWater(20) <= +inf
   0 <= PowerGeneratingWater(21) <= +inf
   0 <= PowerGeneratingWater(22) <= +inf
   0 <= PowerGeneratingWater(23) <= +inf
   0 <= PowerGeneratingWater(24) <= +inf
   0 <= PowerGeneratingWater(25) <= +inf
   0 <= PowerGeneratingWater(26) <= +inf
   0 <= PowerGeneratingWater(27) <= +inf
   0 <= PowerGeneratingWater(28) <= +inf
   0 <= PowerGeneratingWater(29) <= +inf
   0 <= PowerGeneratingWater(30) <= +inf
   0 <= PExcess(1) <= +inf
   0 <= PExcess(2) <= +inf
   0 <= PExcess(3) <= +inf
   0 <= PExcess(4) <= +inf
   0 <= PExcess(5) <= +inf
   0 <= PExcess(6) <= +inf
   0 <= PExcess(7) <= +inf
   0 <= PExcess(8) <= +inf
   0 <= PExcess(9) <= +inf
   0 <= PExcess(10) <= +inf
   0 <= PExcess(11) <= +inf
   0 <= PExcess(12) <= +inf
   0 <= PExcess(13) <= +inf
   0 <= PExcess(14) <= +inf
   0 <= PExcess(15) <= +inf
   0 <= PExcess(16) <= +inf
   0 <= PExcess(17) <= +inf
   0 <= PExcess(18) <= +inf
   0 <= PExcess(19) <= +inf
   0 <= PExcess(20) <= +inf
   0 <= PExcess(21) <= +inf
   0 <= PExcess(22) <= +inf
   0 <= PExcess(23) <= +inf
   0 <= PExcess(24) <= +inf
   0 <= PExcess(25) <= +inf
   0 <= PExcess(26) <= +inf
   0 <= PExcess(27) <= +inf
   0 <= PExcess(28) <= +inf
   0 <= PExcess(29) <= +inf
   0 <= PExcess(30) <= +inf
end
